Minimize
	value: tt

Subject to
tt + 2000 s_1_1 > 0
tt - t_1_1 - 2002.500000 s_1_1 + 2.500000 s_1_6 > -1983.004950
tt + 2000 s_2_1 > 0
tt - t_2_1 - 2005.000000 s_2_1 + 5.000000 s_2_6 > -1983.303900
tt + 2000 s_1_2 > 0
tt - t_1_2 - 2002.500000 s_1_2 + 2.500000 s_1_7 > -1981.842811
tt + 2000 s_2_2 > 0
tt - t_2_2 - 2005.000000 s_2_2 + 5.000000 s_2_7 > -1982.602643
tt + 2000 s_1_3 > 0
tt - t_1_3 - 2002.500000 s_1_3 + 2.500000 s_1_7 > -1970.343075
tt + 2000 s_2_3 > 0
tt - t_2_3 - 2005.000000 s_2_3 + 5.000000 s_2_7 > -1977.783867
tt + 2000 s_1_4 > 0
tt - t_1_4 - 2017.202840 s_1_4 + 17.202840 s_1_3 > -1984.782467
tt + 2000 s_2_4 > 0
tt - t_2_4 - 2034.405680 s_2_4 + 34.405680 s_2_3 > -1990.187567
tt + 2000 s_1_5 > 0
tt - t_1_5 - 2010.000000 s_1_5 + 10.000000 s_1_6 > -1977.655892
tt + 2000 s_2_5 > 0
tt - t_2_5 - 2020.000000 s_2_5 + 20.000000 s_2_6 > -1983.513500
tt + 2000 s_1_6 > 0
tt - t_1_6 - 2000.000000 s_1_6 > -1937.703200
tt + 2000 s_2_6 > 0
tt - t_2_6 - 2000.000000 s_2_6 > -1972.711300
tt + 2000 s_1_7 > 0
tt - t_1_7 - 2000.000000 s_1_7 > -1937.705171
tt + 2000 s_2_7 > 0
tt - t_2_7 - 2000.000000 s_2_7 > -1972.869500
tt + 2000 s_1_8 > 0
tt - t_1_8 - 2122.028400 s_1_8 + 122.028400 s_1_1 > -1998.804667
tt + 2000 s_2_8 > 0
tt - t_2_8 - 2244.056800 s_2_8 + 244.056800 s_2_1 > -1991.878900
s_1_1 + s_2_1  = 1
s_1_2 + s_2_2  = 1
s_1_3 + s_2_3  = 1
s_1_4 + s_2_4  = 1
s_1_5 + s_2_5  = 1
s_1_6 + s_2_6  = 1
s_1_7 + s_2_7  = 1
s_1_8 + s_2_8  = 1
t_1_1 - t_1_2 + 2000.000000 u_1_1_2 - 2.500000 s_1_2 + 2.500000 s_1_7 > 18.157189
t_1_2 - t_1_1 - 2000.000000 u_1_1_2 > -1983.004950
t_2_1 - t_2_2 + 2000.000000 u_2_1_2 - 5.000000 s_2_2 + 5.000000 s_2_7 > 17.397357
t_2_2 - t_2_1 - 2000.000000 u_2_1_2 > -1983.303900
t_1_1 - t_1_3 + 2000.000000 u_1_1_3 - 2.500000 s_1_3 + 2.500000 s_1_7 > 29.656925
t_1_3 - t_1_1 - 2000.000000 u_1_1_3 > -1983.004950
t_2_1 - t_2_3 + 2000.000000 u_2_1_3 - 5.000000 s_2_3 + 5.000000 s_2_7 > 22.216133
t_2_3 - t_2_1 - 2000.000000 u_2_1_3 > -1983.303900
t_1_1 - t_1_4 + 2000.000000 u_1_1_4 - 8.601420 s_1_4 + 8.601420 s_1_3 > 15.217533
t_1_4 - t_1_1 - 2000.000000 u_1_1_4 > -1983.004950
t_2_1 - t_2_4 + 2000.000000 u_2_1_4 - 17.202840 s_2_4 + 17.202840 s_2_3 > 9.812433
t_2_4 - t_2_1 - 2000.000000 u_2_1_4 > -1983.303900
t_1_1 - t_1_5 + 2000.000000 u_1_1_5 - 5.000000 s_1_5 + 5.000000 s_1_6 > 22.344108
t_1_5 - t_1_1 - 2000.000000 u_1_1_5 > -1983.004950
t_2_1 - t_2_5 + 2000.000000 u_2_1_5 - 10.000000 s_2_5 + 10.000000 s_2_6 > 16.486500
t_2_5 - t_2_1 - 2000.000000 u_2_1_5 > -1983.303900
t_1_1 - t_1_6 - 2000.000000 s_1_6 > -1919.758667
t_1_1 - t_2_6 - 2000.000000 s_2_6 > -1936.822233
t_2_1 - t_1_6 - 2000.000000 s_1_6 > -1919.758667
t_2_1 - t_2_6 - 2000.000000 s_2_6 > -1936.822233
t_1_1 - t_1_7 + 2000.000000 u_1_1_7 > 62.294829
t_1_7 - t_1_1 - 2000.000000 u_1_1_7 > -1983.004950
t_2_1 - t_2_7 + 2000.000000 u_2_1_7 > 27.130500
t_2_7 - t_2_1 - 2000.000000 u_2_1_7 > -1983.303900
t_1_8 - t_1_1 - 2000.000000 s_1_1 > -1980.504950
t_1_8 - t_2_1 - 2000.000000 s_2_1 > -1978.303900
t_2_8 - t_1_1 - 2000.000000 s_1_1 > -1980.504950
t_2_8 - t_2_1 - 2000.000000 s_2_1 > -1978.303900
t_1_2 - t_1_1 + 2000.000000 u_1_2_1 - 2.500000 s_1_1 + 2.500000 s_1_6 > 16.995050
t_1_1 - t_1_2 - 2000.000000 u_1_2_1 > -1981.842811
t_2_2 - t_2_1 + 2000.000000 u_2_2_1 - 5.000000 s_2_1 + 5.000000 s_2_6 > 16.696100
t_2_1 - t_2_2 - 2000.000000 u_2_2_1 > -1982.602643
t_1_2 - t_1_3 + 2000.000000 u_1_2_3 - 2.500000 s_1_3 + 2.500000 s_1_7 > 29.656925
t_1_3 - t_1_2 - 2000.000000 u_1_2_3 > -1981.842811
t_2_2 - t_2_3 + 2000.000000 u_2_2_3 - 5.000000 s_2_3 + 5.000000 s_2_7 > 22.216133
t_2_3 - t_2_2 - 2000.000000 u_2_2_3 > -1982.602643
t_1_2 - t_1_4 + 2000.000000 u_1_2_4 - 8.601420 s_1_4 + 8.601420 s_1_3 > 15.217533
t_1_4 - t_1_2 - 2000.000000 u_1_2_4 > -1981.842811
t_2_2 - t_2_4 + 2000.000000 u_2_2_4 - 17.202840 s_2_4 + 17.202840 s_2_3 > 9.812433
t_2_4 - t_2_2 - 2000.000000 u_2_2_4 > -1982.602643
t_1_2 - t_1_5 + 2000.000000 u_1_2_5 - 5.000000 s_1_5 + 5.000000 s_1_6 > 22.344108
t_1_5 - t_1_2 - 2000.000000 u_1_2_5 > -1981.842811
t_2_2 - t_2_5 + 2000.000000 u_2_2_5 - 10.000000 s_2_5 + 10.000000 s_2_6 > 16.486500
t_2_5 - t_2_2 - 2000.000000 u_2_2_5 > -1982.602643
t_1_2 - t_1_6 + 2000.000000 u_1_2_6 > 62.296800
t_1_6 - t_1_2 - 2000.000000 u_1_2_6 > -1981.842811
t_2_2 - t_2_6 + 2000.000000 u_2_2_6 > 27.288700
t_2_6 - t_2_2 - 2000.000000 u_2_2_6 > -1982.602643
t_1_2 - t_1_7 - 2000.000000 s_1_7 > -1919.760638
t_1_2 - t_2_7 - 2000.000000 s_2_7 > -1936.980433
t_2_2 - t_1_7 - 2000.000000 s_1_7 > -1919.760638
t_2_2 - t_2_7 - 2000.000000 s_2_7 > -1936.980433
t_1_8 - t_1_2 - 2000.000000 s_1_2 > -1979.342811
t_1_8 - t_2_2 - 2000.000000 s_2_2 > -1977.602643
t_2_8 - t_1_2 - 2000.000000 s_1_2 > -1979.342811
t_2_8 - t_2_2 - 2000.000000 s_2_2 > -1977.602643
t_1_3 - t_1_1 + 2000.000000 u_1_3_1 - 2.500000 s_1_1 + 2.500000 s_1_6 > 16.995050
t_1_1 - t_1_3 - 2000.000000 u_1_3_1 > -1970.343075
t_2_3 - t_2_1 + 2000.000000 u_2_3_1 - 5.000000 s_2_1 + 5.000000 s_2_6 > 16.696100
t_2_1 - t_2_3 - 2000.000000 u_2_3_1 > -1977.783867
t_1_3 - t_1_2 + 2000.000000 u_1_3_2 - 2.500000 s_1_2 + 2.500000 s_1_7 > 18.157189
t_1_2 - t_1_3 - 2000.000000 u_1_3_2 > -1970.343075
t_2_3 - t_2_2 + 2000.000000 u_2_3_2 - 5.000000 s_2_2 + 5.000000 s_2_7 > 17.397357
t_2_2 - t_2_3 - 2000.000000 u_2_3_2 > -1977.783867
t_1_4 - t_1_3 - 2000.000000 s_1_3 > -1967.843075
t_1_4 - t_2_3 - 2000.000000 s_2_3 > -1972.783867
t_2_4 - t_1_3 - 2000.000000 s_1_3 > -1967.843075
t_2_4 - t_2_3 - 2000.000000 s_2_3 > -1972.783867
t_1_3 - t_1_5 + 2000.000000 u_1_3_5 - 5.000000 s_1_5 + 5.000000 s_1_6 > 22.344108
t_1_5 - t_1_3 - 2000.000000 u_1_3_5 > -1970.343075
t_2_3 - t_2_5 + 2000.000000 u_2_3_5 - 10.000000 s_2_5 + 10.000000 s_2_6 > 16.486500
t_2_5 - t_2_3 - 2000.000000 u_2_3_5 > -1977.783867
t_1_3 - t_1_6 + 2000.000000 u_1_3_6 > 62.296800
t_1_6 - t_1_3 - 2000.000000 u_1_3_6 > -1970.343075
t_2_3 - t_2_6 + 2000.000000 u_2_3_6 > 27.288700
t_2_6 - t_2_3 - 2000.000000 u_2_3_6 > -1977.783867
t_1_3 - t_1_7 - 2000.000000 s_1_7 > -1919.760638
t_1_3 - t_2_7 - 2000.000000 s_2_7 > -1936.980433
t_2_3 - t_1_7 - 2000.000000 s_1_7 > -1919.760638
t_2_3 - t_2_7 - 2000.000000 s_2_7 > -1936.980433
t_1_8 - t_1_3 - 2000.000000 s_1_3 > -1967.843075
t_1_8 - t_2_3 - 2000.000000 s_2_3 > -1972.783867
t_2_8 - t_1_3 - 2000.000000 s_1_3 > -1967.843075
t_2_8 - t_2_3 - 2000.000000 s_2_3 > -1972.783867
t_1_4 - t_1_1 + 2000.000000 u_1_4_1 - 2.500000 s_1_1 + 2.500000 s_1_6 > 16.995050
t_1_1 - t_1_4 - 2000.000000 u_1_4_1 > -1984.782467
t_2_4 - t_2_1 + 2000.000000 u_2_4_1 - 5.000000 s_2_1 + 5.000000 s_2_6 > 16.696100
t_2_1 - t_2_4 - 2000.000000 u_2_4_1 > -1990.187567
t_1_4 - t_1_2 + 2000.000000 u_1_4_2 - 2.500000 s_1_2 + 2.500000 s_1_7 > 18.157189
t_1_2 - t_1_4 - 2000.000000 u_1_4_2 > -1984.782467
t_2_4 - t_2_2 + 2000.000000 u_2_4_2 - 5.000000 s_2_2 + 5.000000 s_2_7 > 17.397357
t_2_2 - t_2_4 - 2000.000000 u_2_4_2 > -1990.187567
t_1_4 - t_1_3 - 2000.000000 s_1_3 > -1967.843075
t_1_4 - t_2_3 - 2000.000000 s_2_3 > -1972.783867
t_2_4 - t_1_3 - 2000.000000 s_1_3 > -1967.843075
t_2_4 - t_2_3 - 2000.000000 s_2_3 > -1972.783867
t_1_4 - t_1_5 + 2000.000000 u_1_4_5 - 5.000000 s_1_5 + 5.000000 s_1_6 > 22.344108
t_1_5 - t_1_4 - 2000.000000 u_1_4_5 > -1984.782467
t_2_4 - t_2_5 + 2000.000000 u_2_4_5 - 10.000000 s_2_5 + 10.000000 s_2_6 > 16.486500
t_2_5 - t_2_4 - 2000.000000 u_2_4_5 > -1990.187567
t_1_4 - t_1_6 + 2000.000000 u_1_4_6 > 62.296800
t_1_6 - t_1_4 - 2000.000000 u_1_4_6 > -1984.782467
t_2_4 - t_2_6 + 2000.000000 u_2_4_6 > 27.288700
t_2_6 - t_2_4 - 2000.000000 u_2_4_6 > -1990.187567
t_1_4 - t_1_7 - 2000.000000 s_1_7 > -1919.760638
t_1_4 - t_2_7 - 2000.000000 s_2_7 > -1936.980433
t_2_4 - t_1_7 - 2000.000000 s_1_7 > -1919.760638
t_2_4 - t_2_7 - 2000.000000 s_2_7 > -1936.980433
t_1_8 - t_1_4 - 2000.000000 s_1_4 > -1976.181047
t_1_8 - t_2_4 - 2000.000000 s_2_4 > -1972.984727
t_2_8 - t_1_4 - 2000.000000 s_1_4 > -1976.181047
t_2_8 - t_2_4 - 2000.000000 s_2_4 > -1972.984727
t_1_5 - t_1_1 + 2000.000000 u_1_5_1 - 2.500000 s_1_1 + 2.500000 s_1_6 > 16.995050
t_1_1 - t_1_5 - 2000.000000 u_1_5_1 > -1977.655892
t_2_5 - t_2_1 + 2000.000000 u_2_5_1 - 5.000000 s_2_1 + 5.000000 s_2_6 > 16.696100
t_2_1 - t_2_5 - 2000.000000 u_2_5_1 > -1983.513500
t_1_5 - t_1_2 + 2000.000000 u_1_5_2 - 2.500000 s_1_2 + 2.500000 s_1_7 > 18.157189
t_1_2 - t_1_5 - 2000.000000 u_1_5_2 > -1977.655892
t_2_5 - t_2_2 + 2000.000000 u_2_5_2 - 5.000000 s_2_2 + 5.000000 s_2_7 > 17.397357
t_2_2 - t_2_5 - 2000.000000 u_2_5_2 > -1983.513500
t_1_5 - t_1_3 + 2000.000000 u_1_5_3 - 2.500000 s_1_3 + 2.500000 s_1_7 > 29.656925
t_1_3 - t_1_5 - 2000.000000 u_1_5_3 > -1977.655892
t_2_5 - t_2_3 + 2000.000000 u_2_5_3 - 5.000000 s_2_3 + 5.000000 s_2_7 > 22.216133
t_2_3 - t_2_5 - 2000.000000 u_2_5_3 > -1983.513500
t_1_5 - t_1_4 + 2000.000000 u_1_5_4 - 8.601420 s_1_4 + 8.601420 s_1_3 > 15.217533
t_1_4 - t_1_5 - 2000.000000 u_1_5_4 > -1977.655892
t_2_5 - t_2_4 + 2000.000000 u_2_5_4 - 17.202840 s_2_4 + 17.202840 s_2_3 > 9.812433
t_2_4 - t_2_5 - 2000.000000 u_2_5_4 > -1983.513500
t_1_5 - t_1_6 - 2000.000000 s_1_6 > -1919.758667
t_1_5 - t_2_6 - 2000.000000 s_2_6 > -1936.822233
t_2_5 - t_1_6 - 2000.000000 s_1_6 > -1919.758667
t_2_5 - t_2_6 - 2000.000000 s_2_6 > -1936.822233
t_1_5 - t_1_7 - 2000.000000 s_1_7 > -1919.760638
t_1_5 - t_2_7 - 2000.000000 s_2_7 > -1936.980433
t_2_5 - t_1_7 - 2000.000000 s_1_7 > -1919.760638
t_2_5 - t_2_7 - 2000.000000 s_2_7 > -1936.980433
t_1_8 - t_1_5 - 2000.000000 s_1_5 > -1972.655892
t_1_8 - t_2_5 - 2000.000000 s_2_5 > -1973.513500
t_2_8 - t_1_5 - 2000.000000 s_1_5 > -1972.655892
t_2_8 - t_2_5 - 2000.000000 s_2_5 > -1973.513500
t_1_1 - t_1_6 - 2000.000000 s_1_6 > -1919.758667
t_1_1 - t_2_6 - 2000.000000 s_2_6 > -1936.822233
t_2_1 - t_1_6 - 2000.000000 s_1_6 > -1919.758667
t_2_1 - t_2_6 - 2000.000000 s_2_6 > -1936.822233
t_1_6 - t_1_2 + 2000.000000 u_1_6_2 - 2.500000 s_1_2 + 2.500000 s_1_7 > 18.157189
t_1_2 - t_1_6 - 2000.000000 u_1_6_2 > -1937.703200
t_2_6 - t_2_2 + 2000.000000 u_2_6_2 - 5.000000 s_2_2 + 5.000000 s_2_7 > 17.397357
t_2_2 - t_2_6 - 2000.000000 u_2_6_2 > -1972.711300
t_1_6 - t_1_3 + 2000.000000 u_1_6_3 - 2.500000 s_1_3 + 2.500000 s_1_7 > 29.656925
t_1_3 - t_1_6 - 2000.000000 u_1_6_3 > -1937.703200
t_2_6 - t_2_3 + 2000.000000 u_2_6_3 - 5.000000 s_2_3 + 5.000000 s_2_7 > 22.216133
t_2_3 - t_2_6 - 2000.000000 u_2_6_3 > -1972.711300
t_1_6 - t_1_4 + 2000.000000 u_1_6_4 - 8.601420 s_1_4 + 8.601420 s_1_3 > 15.217533
t_1_4 - t_1_6 - 2000.000000 u_1_6_4 > -1937.703200
t_2_6 - t_2_4 + 2000.000000 u_2_6_4 - 17.202840 s_2_4 + 17.202840 s_2_3 > 9.812433
t_2_4 - t_2_6 - 2000.000000 u_2_6_4 > -1972.711300
t_1_5 - t_1_6 - 2000.000000 s_1_6 > -1919.758667
t_1_5 - t_2_6 - 2000.000000 s_2_6 > -1936.822233
t_2_5 - t_1_6 - 2000.000000 s_1_6 > -1919.758667
t_2_5 - t_2_6 - 2000.000000 s_2_6 > -1936.822233
t_1_6 - t_1_7 + 2000.000000 u_1_6_7 > 62.294829
t_1_7 - t_1_6 - 2000.000000 u_1_6_7 > -1937.703200
t_2_6 - t_2_7 + 2000.000000 u_2_6_7 > 27.130500
t_2_7 - t_2_6 - 2000.000000 u_2_6_7 > -1972.711300
t_1_7 - t_1_1 + 2000.000000 u_1_7_1 - 2.500000 s_1_1 + 2.500000 s_1_6 > 16.995050
t_1_1 - t_1_7 - 2000.000000 u_1_7_1 > -1937.705171
t_2_7 - t_2_1 + 2000.000000 u_2_7_1 - 5.000000 s_2_1 + 5.000000 s_2_6 > 16.696100
t_2_1 - t_2_7 - 2000.000000 u_2_7_1 > -1972.869500
t_1_2 - t_1_7 - 2000.000000 s_1_7 > -1919.760638
t_1_2 - t_2_7 - 2000.000000 s_2_7 > -1936.980433
t_2_2 - t_1_7 - 2000.000000 s_1_7 > -1919.760638
t_2_2 - t_2_7 - 2000.000000 s_2_7 > -1936.980433
t_1_3 - t_1_7 - 2000.000000 s_1_7 > -1919.760638
t_1_3 - t_2_7 - 2000.000000 s_2_7 > -1936.980433
t_2_3 - t_1_7 - 2000.000000 s_1_7 > -1919.760638
t_2_3 - t_2_7 - 2000.000000 s_2_7 > -1936.980433
t_1_4 - t_1_7 - 2000.000000 s_1_7 > -1919.760638
t_1_4 - t_2_7 - 2000.000000 s_2_7 > -1936.980433
t_2_4 - t_1_7 - 2000.000000 s_1_7 > -1919.760638
t_2_4 - t_2_7 - 2000.000000 s_2_7 > -1936.980433
t_1_5 - t_1_7 - 2000.000000 s_1_7 > -1919.760638
t_1_5 - t_2_7 - 2000.000000 s_2_7 > -1936.980433
t_2_5 - t_1_7 - 2000.000000 s_1_7 > -1919.760638
t_2_5 - t_2_7 - 2000.000000 s_2_7 > -1936.980433
t_1_7 - t_1_6 + 2000.000000 u_1_7_6 > 62.296800
t_1_6 - t_1_7 - 2000.000000 u_1_7_6 > -1937.705171
t_2_7 - t_2_6 + 2000.000000 u_2_7_6 > 27.288700
t_2_6 - t_2_7 - 2000.000000 u_2_7_6 > -1972.869500
t_1_8 - t_1_1 - 2000.000000 s_1_1 > -1980.504950
t_1_8 - t_2_1 - 2000.000000 s_2_1 > -1978.303900
t_2_8 - t_1_1 - 2000.000000 s_1_1 > -1980.504950
t_2_8 - t_2_1 - 2000.000000 s_2_1 > -1978.303900
t_1_8 - t_1_2 - 2000.000000 s_1_2 > -1979.342811
t_1_8 - t_2_2 - 2000.000000 s_2_2 > -1977.602643
t_2_8 - t_1_2 - 2000.000000 s_1_2 > -1979.342811
t_2_8 - t_2_2 - 2000.000000 s_2_2 > -1977.602643
t_1_8 - t_1_3 - 2000.000000 s_1_3 > -1967.843075
t_1_8 - t_2_3 - 2000.000000 s_2_3 > -1972.783867
t_2_8 - t_1_3 - 2000.000000 s_1_3 > -1967.843075
t_2_8 - t_2_3 - 2000.000000 s_2_3 > -1972.783867
t_1_8 - t_1_4 - 2000.000000 s_1_4 > -1976.181047
t_1_8 - t_2_4 - 2000.000000 s_2_4 > -1972.984727
t_2_8 - t_1_4 - 2000.000000 s_1_4 > -1976.181047
t_2_8 - t_2_4 - 2000.000000 s_2_4 > -1972.984727
t_1_8 - t_1_5 - 2000.000000 s_1_5 > -1972.655892
t_1_8 - t_2_5 - 2000.000000 s_2_5 > -1973.513500
t_2_8 - t_1_5 - 2000.000000 s_1_5 > -1972.655892
t_2_8 - t_2_5 - 2000.000000 s_2_5 > -1973.513500
Binary
s_1_1
s_2_1
s_1_2
s_2_2
s_1_3
s_2_3
s_1_4
s_2_4
s_1_5
s_2_5
s_1_6
s_2_6
s_1_7
s_2_7
s_1_8
s_2_8
u_1_1_2
u_2_1_2
u_1_1_3
u_2_1_3
u_1_1_4
u_2_1_4
u_1_1_5
u_2_1_5
u_1_1_7
u_2_1_7
u_1_2_1
u_2_2_1
u_1_2_3
u_2_2_3
u_1_2_4
u_2_2_4
u_1_2_5
u_2_2_5
u_1_2_6
u_2_2_6
u_1_3_1
u_2_3_1
u_1_3_2
u_2_3_2
u_1_3_5
u_2_3_5
u_1_3_6
u_2_3_6
u_1_4_1
u_2_4_1
u_1_4_2
u_2_4_2
u_1_4_5
u_2_4_5
u_1_4_6
u_2_4_6
u_1_5_1
u_2_5_1
u_1_5_2
u_2_5_2
u_1_5_3
u_2_5_3
u_1_5_4
u_2_5_4
u_1_6_2
u_2_6_2
u_1_6_3
u_2_6_3
u_1_6_4
u_2_6_4
u_1_6_7
u_2_6_7
u_1_7_1
u_2_7_1
u_1_7_6
u_2_7_6

End
